161344 50 4950 108753 177176 0.98
163008 38 3762 87916 177188 0.96
161488 46 4554 97074 175260 0.99
161752 41 4059 90800 176800 0.96
167564 20 1980 42126 176716 0.97
163432 32 3168 73009 179164 0.96
162276 37 3663 78326 181396 0.99
163768 30 2970 68797 177326 0.97
163908 30 2970 62894 177990 0.99
160958 48 4752 129626 179850 0.97
